!HF  DEF2-SVP 
%maxcore 15.0
%pal nprocs = 12  end
%scf
MAXITER 0
end
%output XYZFILE 1 end
* xyz 0 1
Cl 3.402161 0.802854 3.987283
Sn 2.011377 -0.347434 2.442607
Cl 0.994691 1.766884 1.820271
Cl 3.090971 -2.425785 2.843061
Cl 0.402574 -1.455382 1.007873
C 4.665811 1.948446 0.97084
C 3.644298 1.091467 0.285139
N 3.07104 1.496585 -0.835288
C 3.20024 2.837287 -1.362511
C 2.029542 0.69577 -1.459782
O 3.346701 -0.030123 0.768307
C -0.069675 -2.89635 4.351944
C -0.364577 -1.461239 4.034301
N -1.602697 -1.072793 3.778866
C -1.875509 0.299691 3.38168
C -2.710791 -1.985929 3.605967
O 0.566615 -0.617058 4.031454
H 5.182533 1.353997 1.716939
H 4.167184 2.766779 1.493035
H 5.396943 2.367139 0.281189
H 3.415507 2.800098 -2.430002
H 2.264743 3.379653 -1.214598
H 3.991871 3.393072 -0.873315
H 2.059049 0.868448 -2.534357
H 1.051808 0.981296 -1.071459
H 2.179219 -0.359786 -1.263104
H -0.158987 -3.499447 3.447215
H 0.953855 -2.977807 4.702308
H -0.73826 -3.302738 5.109741
H -2.884502 0.557866 3.698558
H -1.171264 0.984849 3.839881
H -1.79709 0.401648 2.299284
H -3.574624 -1.631704 4.167851
H -2.470219 -2.986448 3.946321
H -2.981731 -2.041626 2.550148
*
