!HF  DEF2-SVP 
%maxcore 15.0
%pal nprocs = 2  end
%scf
MAXITER 0
end
%output XYZFILE 1 end
* xyz 0 1
Cl  0.65965400000000     -1.11023400000000      1.97589000000000
Sn  0.80009900000000      0.33533900000000      0.15060200000000
Cl  -0.68026100000000     -0.03418100000000     -1.64882600000000
Cl  2.62578400000000     -0.71074800000000     -0.88571400000000
Cl  1.81028200000000      2.42311500000000      0.40329500000000
O   -4.24125700000000     -0.92324600000000      0.04944900000000
C   -3.44372500000000     -1.71938200000000     -0.40937900000000
N   -2.71308100000000     -2.59726900000000      0.29710600000000
C   -2.83884600000000     -2.70302900000000      1.73077900000000
C   -1.72819700000000     -3.43807200000000     -0.33545700000000
O   -0.94390700000000      1.32162100000000      1.08283200000000
C   -2.14075900000000      1.45570100000000      0.75422100000000
N   -2.58766400000000      2.33057900000000     -0.11692900000000
C   -1.71061000000000      3.23581200000000     -0.83244200000000
C   -3.98842500000000      2.36482100000000     -0.48692500000000
H   -3.24648000000000     -1.79476100000000     -1.49031300000000
H   -3.02546000000000     -3.74021700000000      2.01586100000000
H   -1.92687900000000     -2.36919000000000      2.22790500000000
H   -3.67088800000000     -2.09481800000000      2.07273200000000
H   -1.96594500000000     -4.49495700000000     -0.19662100000000
H   -0.73652000000000     -3.25272400000000      0.08030400000000
H   -1.68727300000000     -3.23200000000000     -1.40332900000000
H   -2.91121200000000      0.83671500000000      1.21831800000000
H   -2.18595800000000      4.21376700000000     -0.89351800000000
H   -1.53039100000000      2.86824000000000     -1.84299700000000
H   -0.75985800000000      3.34255600000000     -0.31969300000000
H   -4.54369500000000      1.59635100000000      0.04168800000000
H   -4.41038500000000      3.34439200000000     -0.26333300000000
H   -4.09030400000000      2.17430100000000     -1.55507400000000
*
