!HF  DEF2-SVP 
%maxcore 15.0
%pal nprocs = 12  end
%scf
MAXITER 0
end
%output XYZFILE 1 end
* xyz 0 1
Cl 3.060463 0.206681 0.007419
Sn 0.801557 0.921005 -0.037779
Cl 1.260736 3.207886 -0.185827
Cl 0.249936 -0.137065 1.981985
Cl 0.286925 -0.238531 -2.025378
S -1.697272 1.791666 -0.091688
C -2.572511 0.364139 -0.042359
N -3.875616 0.317367 -0.099733
C -4.661333 1.535143 -0.193498
C -4.590879 -0.949286 -0.07303
S -1.717615 -3.21919 0.723553
C -0.437972 -3.178395 -0.324115
N 0.847469 -3.269068 -0.036748
C 1.855885 -3.274529 -1.076059
C 1.349815 -3.403963 1.313055
H -2.076361 -0.600953 0.049662
H -5.716304 1.277602 -0.21803
H -4.406042 2.087678 -1.097891
H -4.470306 2.179645 0.664691
H -5.202724 -1.043518 -0.969903
H -5.239089 -0.992602 0.801903
H -3.885827 -1.777886 -0.033033
H -0.61799 -3.068387 -1.391115
H 2.56263 -2.460257 -0.91879
H 1.395125 -3.143275 -2.051172
H 2.399511 -4.220943 -1.067128
H 1.784705 -4.395514 1.452002
H 0.540859 -3.265049 2.022775
H 2.11792 -2.651677 1.490086
*
