!HF  DEF2-SVP 
%maxcore 15.0
%pal nprocs = 12  end
%scf
MAXITER 0
end
%output XYZFILE 1 end
* xyz 0 1
Cl 0.151869 2.125312 2.434555
Sn -0.123179 0.537226 0.673317
Cl -1.973027 -0.530669 1.742019
Cl 1.690128 -0.844822 1.406485
Cl -0.394588 -0.715791 -1.344006
C 2.608246 0.564603 -2.073821
C 2.461569 1.317223 -0.78398
N 3.527366 1.548036 -0.033887
C 4.797923 0.882795 -0.225678
C 3.418789 2.273211 1.221325
O 1.331741 1.747485 -0.437828
C -2.986132 2.981609 1.417801
C -2.737072 2.096173 0.232568
N -3.756099 1.499108 -0.36648
C -3.543396 0.615623 -1.500337
C -5.091789 1.440557 0.186837
O -1.568023 1.945555 -0.204501
H 1.71422 0.71012 -2.66996
H 2.692938 -0.504047 -1.869524
H 3.476916 0.88074 -2.648922
H 5.610284 1.607639 -0.18124
H 4.943058 0.147036 0.567516
H 4.851555 0.365195 -1.17617
H 4.342358 2.829359 1.376833
H 3.270613 1.580484 2.049552
H 2.583705 2.96347 1.200088
H -3.157132 2.367978 2.303789
H -2.101386 3.580833 1.602159
H -3.840972 3.640887 1.277357
H -4.416307 0.672013 -2.149543
H -2.661256 0.905053 -2.058825
H -3.411395 -0.412292 -1.162423
H -5.824168 1.719409 -0.570716
H -5.212328 2.097517 1.039887
H -5.303371 0.421427 0.515246
*
