!HF  DEF2-SVP 
%maxcore 15.0
%pal nprocs = 12  end
%scf
MAXITER 0
end
%output XYZFILE 1 end
* xyz 0 1
Cl 0.742079 -1.907454 1.601062
Sn -0.00728 -0.368116 -0.101208
Cl 1.773439 -1.22371 -1.555771
Cl -1.675294 0.595377 1.342979
Cl -0.800171 0.982745 -1.9633
S -1.600491 -2.350459 -0.63705
C -2.646867 -1.818962 -1.895605
N -2.21886 -1.634938 -3.144571
C -0.949828 -2.156946 -3.617981
C -2.814754 -0.64966 -4.030794
N -3.949699 -1.661744 -1.626907
C -4.987125 -1.958448 -2.596512
C -4.433947 -1.435195 -0.274816
S 1.468743 1.655385 0.59567
C 3.037366 0.960687 0.397303
N 3.773347 1.263995 -0.669423
C 3.212215 1.794778 -1.898612
C 5.216363 1.136516 -0.687377
N 3.544145 0.158677 1.340817
C 3.144148 0.262253 2.734464
C 4.294472 -1.044081 1.020425
H -0.621391 -2.988387 -3.004093
H -1.084301 -2.500344 -4.644725
H -0.180609 -1.386514 -3.592314
H -2.011523 -0.045104 -4.449121
H -3.466099 0.022892 -3.480987
H -3.368983 -1.111477 -4.850181
H -5.485281 -1.06094 -2.967416
H -4.584669 -2.513777 -3.439318
H -5.738571 -2.585875 -2.115403
H -5.317444 -0.799393 -0.333586
H -3.687808 -0.929122 0.329254
H -4.708392 -2.373608 0.210476
H 3.596055 1.215345 -2.738189
H 2.131236 1.727773 -1.905092
H 3.506246 2.83854 -2.021254
H 5.628806 1.999717 -1.209817
H 5.617407 1.131773 0.322535
H 5.548688 0.237053 -1.20849
H 4.034291 0.124609 3.350801
H 2.725036 1.241149 2.940889
H 2.407037 -0.495211 2.992802
H 5.336573 -0.982918 1.340488
H 4.240618 -1.261032 -0.041657
H 3.8155 -1.877636 1.534028
*
