!HF  DEF2-SVP 
%maxcore 15.0
%pal nprocs = 2  end
%scf
MAXITER 0
end
%output XYZFILE 1 end
* xyz 0 1
Cl  0.89395000000000      1.87736700000000      2.22470300000000
Sn  -0.07213800000000      1.22016900000000      0.08306800000000
Cl  -1.13279700000000      0.52535200000000     -1.98257400000000
Cl  1.07240200000000     -0.90655800000000      0.20050300000000
Cl  -1.17731600000000      3.37943100000000     -0.10485000000000
S   1.86225400000000      2.27830100000000     -1.24877900000000
C   3.20429900000000      1.34442600000000     -0.68394300000000
N   3.89961900000000      0.63817500000000     -1.56709600000000
N   3.58065300000000      1.40724600000000      0.57467100000000
C   4.68775400000000      0.68472600000000      1.17427700000000
C   4.57774400000000     -0.80784900000000      1.06698400000000
C   5.58623500000000     -1.58558400000000      0.69412800000000
S   -1.98748800000000      0.26529100000000      1.54931600000000
C   -3.28253700000000      0.21450000000000      0.41999700000000
N   -3.69718300000000      1.32810700000000     -0.16818700000000
N   -3.93645800000000     -0.91299000000000      0.17557300000000
C   -3.61596200000000     -2.23805600000000      0.66012400000000
C   -3.35163500000000     -3.21239000000000     -0.44969800000000
C   -2.89555600000000     -2.89696000000000     -1.65335500000000
H   4.56723400000000     -0.05852800000000     -1.27166600000000
H   3.49313600000000      0.52298200000000     -2.47942100000000
H   2.93980100000000      1.88790300000000      1.19996200000000
H   5.63367000000000      1.03656500000000      0.75071000000000
H   4.69197500000000      0.97242400000000      2.22624500000000
H   3.61616400000000     -1.23364900000000      1.33004500000000
H   5.48585800000000     -2.66149200000000      0.66597900000000
H   6.55653500000000     -1.18187800000000      0.42620500000000
H   -4.23756000000000      1.28238700000000     -1.01749500000000
H   -3.13001900000000      2.16479800000000     -0.06208900000000
H   -4.71744000000000     -0.87012200000000     -0.46323200000000
H   -2.74412700000000     -2.15810800000000      1.31122000000000
H   -4.44125600000000     -2.59098600000000      1.28350100000000
H   -3.53336300000000     -4.25117900000000     -0.19665500000000
H   -2.65360300000000     -1.88152300000000     -1.94108600000000
H   -2.70765200000000     -3.66600200000000     -2.38934000000000
*
