!HF  DEF2-SVP 
%maxcore 15.0
%pal nprocs = 2  end
%scf
MAXITER 0
end
%output XYZFILE 1 end
* xyz 0 1
F   -0.30766700000000     -5.78760700000000      0.53460600000000
C   -0.18125700000000     -4.45930800000000      0.42378300000000
C   -0.75854000000000     -3.81623700000000     -0.65425800000000
C   -0.61732100000000     -2.44128000000000     -0.75459900000000
C   0.51399400000000     -3.76193000000000      1.38870400000000
C   0.63463400000000     -2.38333000000000      1.26224000000000
C   0.08518500000000     -1.68163200000000      0.18924300000000
B   0.21918500000000     -0.07554500000000      0.01824800000000
C   0.77349000000000      0.69546400000000      1.33098700000000
C   2.13226100000000      0.52708500000000      1.63143000000000
C   2.74748600000000      1.16225000000000      2.69588400000000
C   1.99390400000000      2.00801000000000      3.48869100000000
F   2.58270100000000      2.64198000000000      4.51229800000000
C   0.65688300000000      2.21951800000000      3.23657400000000
C   0.06516900000000      1.56088600000000      2.16193000000000
C   1.09261600000000      0.37979700000000     -1.26845600000000
C   1.54980600000000     -0.50679800000000     -2.24441000000000
C   2.36115500000000     -0.10138100000000     -3.29737100000000
C   2.72511000000000      1.22594200000000     -3.38100900000000
F   3.51819000000000      1.62980400000000     -4.38101200000000
C   2.30109300000000      2.15017100000000     -2.44542700000000
C   1.50217300000000      1.71344500000000     -1.40123000000000
N   -6.50014300000000      1.71944300000000     -0.74388800000000
C   -5.39022600000000      1.44178900000000     -0.62613300000000
C   -4.01179800000000      1.09665500000000     -0.47741800000000
C   -3.59479500000000      0.29642700000000      0.58221400000000
C   -2.26027700000000     -0.02746400000000      0.67848000000000
N   -1.35507100000000      0.40872100000000     -0.20358400000000
C   -1.74680600000000      1.18060300000000     -1.21419400000000
C   -3.06760400000000      1.54652200000000     -1.38979300000000
H   -1.30390100000000     -4.38198400000000     -1.39836300000000
H   -1.07411000000000     -1.95127900000000     -1.60880700000000
H   0.95061900000000     -4.28551100000000      2.22905800000000
H   1.17156000000000     -1.84647900000000      2.03381600000000
H   2.73732200000000     -0.11023300000000      0.99683600000000
H   3.79969200000000      1.01615000000000      2.90199100000000
H   0.08500800000000      2.89402300000000      3.86018300000000
H   -0.98396200000000      1.77013700000000      1.98480600000000
H   1.29514900000000     -1.55653700000000     -2.17807600000000
H   2.71655900000000     -0.81091300000000     -4.03312300000000
H   2.61209500000000      3.18389200000000     -2.52065200000000
H   1.21073100000000      2.43739100000000     -0.64805100000000
H   -4.29594300000000     -0.07566500000000      1.31448200000000
H   -1.88782100000000     -0.66211900000000      1.46978500000000
H   -0.97587700000000      1.49814300000000     -1.90121500000000
H   -3.34786300000000      2.16638200000000     -2.22861900000000
*
