!HF  DEF2-SVP 
%maxcore 15.0
%pal nprocs = 2  end
%scf
MAXITER 0
end
%output XYZFILE 1 end
* xyz 0 1
Cl  0.74207900000000     -1.90745400000000      1.60106200000000
Sn  -0.00728000000000     -0.36811600000000     -0.10120800000000
Cl  1.77343900000000     -1.22371000000000     -1.55577100000000
Cl  -1.67529400000000      0.59537700000000      1.34297900000000
Cl  -0.80017100000000      0.98274500000000     -1.96330000000000
S   -1.60049100000000     -2.35045900000000     -0.63705000000000
C   -2.64686700000000     -1.81896200000000     -1.89560500000000
N   -2.21886000000000     -1.63493800000000     -3.14457100000000
C   -0.94982800000000     -2.15694600000000     -3.61798100000000
C   -2.81475400000000     -0.64966000000000     -4.03079400000000
N   -3.94969900000000     -1.66174400000000     -1.62690700000000
C   -4.98712500000000     -1.95844800000000     -2.59651200000000
C   -4.43394700000000     -1.43519500000000     -0.27481600000000
S   1.46874300000000      1.65538500000000      0.59567000000000
C   3.03736600000000      0.96068700000000      0.39730300000000
N   3.77334700000000      1.26399500000000     -0.66942300000000
C   3.21221500000000      1.79477800000000     -1.89861200000000
C   5.21636300000000      1.13651600000000     -0.68737700000000
N   3.54414500000000      0.15867700000000      1.34081700000000
C   3.14414800000000      0.26225300000000      2.73446400000000
C   4.29447200000000     -1.04408100000000      1.02042500000000
H   -0.62139100000000     -2.98838700000000     -3.00409300000000
H   -1.08430100000000     -2.50034400000000     -4.64472500000000
H   -0.18060900000000     -1.38651400000000     -3.59231400000000
H   -2.01152300000000     -0.04510400000000     -4.44912100000000
H   -3.46609900000000      0.02289200000000     -3.48098700000000
H   -3.36898300000000     -1.11147700000000     -4.85018100000000
H   -5.48528100000000     -1.06094000000000     -2.96741600000000
H   -4.58466900000000     -2.51377700000000     -3.43931800000000
H   -5.73857100000000     -2.58587500000000     -2.11540300000000
H   -5.31744400000000     -0.79939300000000     -0.33358600000000
H   -3.68780800000000     -0.92912200000000      0.32925400000000
H   -4.70839200000000     -2.37360800000000      0.21047600000000
H   3.59605500000000      1.21534500000000     -2.73818900000000
H   2.13123600000000      1.72777300000000     -1.90509200000000
H   3.50624600000000      2.83854000000000     -2.02125400000000
H   5.62880600000000      1.99971700000000     -1.20981700000000
H   5.61740700000000      1.13177300000000      0.32253500000000
H   5.54868800000000      0.23705300000000     -1.20849000000000
H   4.03429100000000      0.12460900000000      3.35080100000000
H   2.72503600000000      1.24114900000000      2.94088900000000
H   2.40703700000000     -0.49521100000000      2.99280200000000
H   5.33657300000000     -0.98291800000000      1.34048800000000
H   4.24061800000000     -1.26103200000000     -0.04165700000000
H   3.81550000000000     -1.87763600000000      1.53402800000000
*
