!HF  DEF2-SVP 
%maxcore 15.0
%pal nprocs = 12  end
%scf
MAXITER 0
end
%output XYZFILE 1 end
* xyz 0 1
C -2.572072 5.843807 2.971184
O -1.346611 5.228777 2.680725
C -1.363975 4.018874 2.077228
C -2.517119 3.335326 1.704573
C -2.413674 2.095739 1.087596
C -0.129902 3.429988 1.826401
C -0.059422 2.193863 1.204173
C -1.19193 1.482651 0.801802
B -1.222234 0.058009 0.028297
C -1.52834 0.199942 -1.558032
C -2.082863 1.346295 -2.117429
C -2.369775 1.464788 -3.474686
C -2.089921 0.41193 -4.335112
O -2.321941 0.422595 -5.666254
C -2.917202 1.560968 -6.227254
C -1.51907 -0.748448 -3.813357
C -1.252778 -0.83898 -2.460776
C -2.183208 -1.001536 0.789975
C -2.332547 -0.969981 2.185356
C -3.109867 -1.879654 2.876385
C -3.796251 -2.877788 2.186083
O -4.533602 -3.726251 2.934407
C -5.231464 -4.753494 2.28338
C -3.688155 -2.930862 0.802055
C -2.895222 -2.002049 0.13407
O 4.541011 -3.088897 0.428115
C 4.374814 -1.904963 0.263784
C 5.511615 -0.966944 0.096418
C 5.413201 0.383589 0.427022
C 6.515378 1.214527 0.301942
C 7.717601 0.70603 -0.165055
C 7.824459 -0.640249 -0.490618
C 6.731834 -1.475436 -0.349179
C 2.972394 -1.37267 0.218159
C 2.002532 -1.942126 1.030763
C 0.700781 -1.490698 0.951194
N 0.331983 -0.538172 0.094639
C 1.250648 -0.001901 -0.712117
C 2.575596 -0.383779 -0.67358
H -2.339839 6.792778 3.450338
H -3.161403 6.045754 2.070504
H -3.184172 5.250076 3.658269
H -3.501572 3.744425 1.890169
H -3.33248 1.58354 0.824163
H 0.77221 3.948169 2.127112
H 0.934132 1.787729 1.048101
H -2.300382 2.196312 -1.482991
H -2.803264 2.388299 -3.835169
H -2.298971 2.456944 -6.107144
H -3.031942 1.361988 -7.290849
H -3.906105 1.765087 -5.803571
H -1.292176 -1.571564 -4.479562
H -0.805957 -1.760773 -2.099896
H -1.827356 -0.19727 2.754555
H -3.203211 -1.823296 3.953854
H -5.74413 -5.321653 3.05684
H -5.979745 -4.370073 1.581933
H -4.564078 -5.430735 1.739927
H -4.2168 -3.676394 0.222712
H -2.85692 -2.065038 -0.946014
H 4.485583 0.78975 0.809345
H 6.434861 2.258932 0.571107
H 8.574898 1.357573 -0.270677
H 8.763668 -1.038097 -0.850521
H 6.813493 -2.526944 -0.589584
H 2.252111 -2.73254 1.724086
H -0.080755 -1.90098 1.573626
H 0.896874 0.750113 -1.402718
H 3.276597 0.080049 -1.353381
*
